c Sudoku solution
p cnf 729 0
136 0
222 0
238 0
249 0
295 0
365 0
397 0
496 0
539 0
551 0
564 0
614 0
663 0
679 0
687 0
735 0
793 0
848 0
869 0
459 0
885 0
921 0
957 0
945 0
853 0
655 0
468 0
982 0
966 0
999 0
194 0
254 0
744 0
761 0
752 0
158 0
356 0
267 0
162 0
173 0
372 0
388 0
189 0
141 0
343 0
213 0
918 0
933 0
974 0
891 0
484 0
583 0
423 0
281 0
276 0
471 0
575 0
631 0
415 0
311 0
334 0
329 0
117 0
125 0
719 0
824 0
877 0
786 0
778 0
727 0
816 0
832 0
512 0
437 0
442 0
646 0
547 0
598 0
692 0
526 0
628 0
